certificates/rado_a11_c59_N31.cnf
c Rad2 upper bound instance: x1 + 11*x2 - x3 = 59, interval [1,31]
p cnf 31 172
1 6 8 0
-1 -6 -8 0
1 7 19 0
-1 -7 -19 0
1 8 30 0
-1 -8 -30 0
2 6 9 0
-2 -6 -9 0
2 7 20 0
-2 -7 -20 0
2 8 31 0
-2 -8 -31 0
3 6 10 0
-3 -6 -10 0
3 7 21 0
-3 -7 -21 0
4 6 11 0
-4 -6 -11 0
4 7 22 0
-4 -7 -22 0
1 5 0
-1 -5 0
5 6 12 0
-5 -6 -12 0
5 7 23 0
-5 -7 -23 0
2 5 6 0
-2 -5 -6 0
6 13 0
-6 -13 0
6 7 24 0
-6 -7 -24 0
3 5 7 0
-3 -5 -7 0
6 7 14 0
-6 -7 -14 0
7 25 0
-7 -25 0
4 5 8 0
-4 -5 -8 0
6 8 15 0
-6 -8 -15 0
7 8 26 0
-7 -8 -26 0
5 9 0
-5 -9 0
6 9 16 0
-6 -9 -16 0
7 9 27 0
-7 -9 -27 0
5 6 10 0
-5 -6 -10 0
6 10 17 0
-6 -10 -17 0
7 10 28 0
-7 -10 -28 0
5 7 11 0
-5 -7 -11 0
6 11 18 0
-6 -11 -18 0
7 11 29 0
-7 -11 -29 0
5 8 12 0
-5 -8 -12 0
6 12 19 0
-6 -12 -19 0
7 12 30 0
-7 -12 -30 0
5 9 13 0
-5 -9 -13 0
6 13 20 0
-6 -13 -20 0
7 13 31 0
-7 -13 -31 0
5 10 14 0
-5 -10 -14 0
6 14 21 0
-6 -14 -21 0
5 11 15 0
-5 -11 -15 0
6 15 22 0
-6 -15 -22 0
1 4 16 0
-1 -4 -16 0
5 12 16 0
-5 -12 -16 0
6 16 23 0
-6 -16 -23 0
2 4 17 0
-2 -4 -17 0
5 13 17 0
-5 -13 -17 0
6 17 24 0
-6 -17 -24 0
3 4 18 0
-3 -4 -18 0
5 14 18 0
-5 -14 -18 0
6 18 25 0
-6 -18 -25 0
4 19 0
-4 -19 0
5 15 19 0
-5 -15 -19 0
6 19 26 0
-6 -19 -26 0
4 5 20 0
-4 -5 -20 0
5 16 20 0
-5 -16 -20 0
6 20 27 0
-6 -20 -27 0
4 6 21 0
-4 -6 -21 0
5 17 21 0
-5 -17 -21 0
6 21 28 0
-6 -21 -28 0
5 18 22 0
-5 -18 -22 0
6 22 29 0
-6 -22 -29 0
4 8 23 0
-4 -8 -23 0
5 19 23 0
-5 -19 -23 0
6 23 30 0
-6 -23 -30 0
4 9 24 0
-4 -9 -24 0
5 20 24 0
-5 -20 -24 0
6 24 31 0
-6 -24 -31 0
4 10 25 0
-4 -10 -25 0
5 21 25 0
-5 -21 -25 0
4 11 26 0
-4 -11 -26 0
5 22 26 0
-5 -22 -26 0
1 3 27 0
-1 -3 -27 0
4 12 27 0
-4 -12 -27 0
5 23 27 0
-5 -23 -27 0
2 3 28 0
-2 -3 -28 0
4 13 28 0
-4 -13 -28 0
5 24 28 0
-5 -24 -28 0
3 29 0
-3 -29 0
4 14 29 0
-4 -14 -29 0
5 25 29 0
-5 -25 -29 0
3 4 30 0
-3 -4 -30 0
4 15 30 0
-4 -15 -30 0
5 26 30 0
-5 -26 -30 0
3 5 31 0
-3 -5 -31 0
4 16 31 0
-4 -16 -31 0
5 27 31 0
-5 -27 -31 0
