certificates/rado_a11_c59_N31.drat
-27 3 -31 0
3 -30 -31 0
-30 -31 0
d 3 -30 -31 0
-8 5 -31 0
5 -31 0
d -8 5 -31 0
-31 0
4 -5 0
-5 0
1 0
9 0
3 0
27 0
-29 0
0
